Problem:    
Rows:       113
Columns:    45 (34 integer, 34 binary)
Non-zeros:  356
Status:     INTEGER OPTIMAL
Objective:  value = 23.778413 (MINimum)

   No.   Row name        Activity     Lower bound   Upper bound
------ ------------    ------------- ------------- -------------
     1 r.5                   1023.78             0               
     2 r.6                  -976.222      -996.646               
     3 r.7                   23.7784             0               
     4 r.8                   -995.61      -997.466               
     5 r.9                   1023.78             0               
     6 r.10                 -983.493       -985.35               
     7 r.11                  23.7784             0               
     8 r.12                  23.7784      -989.701               
     9 r.13                  1023.78             0               
    10 r.14                 -979.575      -996.082               
    11 r.15                  23.7784             0               
    12 r.16                  23.7784      -996.048               
    13 r.17                  23.7784             0               
    14 r.18                  23.7784      -973.613               
    15 r.19                  1023.78             0               
    16 r.20                 -976.222      -981.875               
    17 r.21                  1023.78             0               
    18 r.22                 -999.848      -999.848               
    19 r.23                  23.7784             0               
    20 r.24                 -998.491      -998.491               
    21 r.25                        1             1             = 
    22 r.26                        1             1             = 
    23 r.27                        1             1             = 
    24 r.28                        1             1             = 
    25 r.29                        1             1             = 
    26 r.30                        2             2               
    27 r.31                       -2         -1001               
    28 r.32                 -7.27188       -985.35               
    29 r.33                     1000             2               
    30 r.34                    -1000         -1001               
    31 r.35                  3019.39      -989.701               
    32 r.36                        2             2               
    33 r.37                       -2         -1001               
    34 r.38                  -3.3538      -996.082               
    35 r.39                     1000             2               
    36 r.40                    -1000         -1001               
    37 r.41                  3019.39      -996.048               
    38 r.42                     1001             2               
    39 r.43                    -1001         -1001               
    40 r.44                     2000      -973.613               
    41 r.45                     1001             2               
    42 r.46                    -1001         -1001               
    43 r.47                  3019.39      -981.875               
    44 r.48                 -978.078      -996.646               
    45 r.49                 -997.466      -997.466               
    46 r.50                   23.511      -996.646               
    47 r.51                  4.12283      -997.466               
    48 r.52                        2             2               
    49 r.53                       -2         -1001               
    50 r.54                  7.27188        3.3538               
    51 r.55                     1000             2               
    52 r.56                    -1000         -1001               
    53 r.57                  980.612       2.53404               
    54 r.58                        2             2               
    55 r.59                       -2         -1001               
    56 r.60                 -996.082      -996.082               
    57 r.61                     1000             2               
    58 r.62                    -1000         -1001               
    59 r.63                     2000      -996.048               
    60 r.64                     1001             2               
    61 r.65                    -1001         -1001               
    62 r.66                  2007.27      -973.613               
    63 r.67                     1001             2               
    64 r.68                    -1001         -1001               
    65 r.69                     2000      -981.875               
    66 r.70                  -985.35       -985.35               
    67 r.71                  21.9222      -989.701               
    68 r.72                  16.2391       -985.35               
    69 r.73                  1023.51      -989.701               
    70 r.74                        2             2               
    71 r.75                       -2         -1001               
    72 r.76                   3.3538        3.3538               
    73 r.77                     1000             2               
    74 r.78                    -1000         -1001               
    75 r.79                  980.612       2.53404               
    76 r.80                        2             2               
    77 r.81                       -2         -1001               
    78 r.82                  996.082       14.6503               
    79 r.83                     1000             2               
    80 r.84                    -1000         -1001               
    81 r.85                     2000       10.2989               
    82 r.86                     1001             2               
    83 r.87                    -1001         -1001               
    84 r.88                  2003.35      -973.613               
    85 r.89                     1001             2               
    86 r.90                    -1001         -1001               
    87 r.91                     2000      -981.875               
    88 r.92                 -981.432      -996.082               
    89 r.93                  21.9222      -996.048               
    90 r.94                  20.1572      -996.082               
    91 r.95                  1023.51      -996.048               
    92 r.96                     1001             2               
    93 r.97                    -1001         -1001               
    94 r.98                     2000        3.3538               
    95 r.99                     1001             2               
    96 r.100                   -1001         -1001               
    97 r.101                 980.612       2.53404               
    98 r.102                    1001             2               
    99 r.103                   -1001         -1001               
   100 r.104                 1992.73       14.6503               
   101 r.105                    1001             2               
   102 r.106                   -1001         -1001               
   103 r.107                    2000       10.2989               
   104 r.108                    1001             2               
   105 r.109                   -1001         -1001               
   106 r.110                 1996.65       3.91807               
   107 r.111                    1001             2               
   108 r.112                   -1001         -1001               
   109 r.113                    2000       3.95232               
   110 r.114                 21.9222      -973.613               
   111 r.115                -978.078      -981.875               
   112 r.116                 1023.51      -973.613               
   113 r.117                  23.511      -981.875               

   No. Column name       Activity     Lower bound   Upper bound
------ ------------    ------------- ------------- -------------
     1 tt                    23.7784             0               
     2 s_1_1        *              1             0             1 
     3 t_1_1                       0             0               
     4 s_2_1        *              0             0             1 
     5 t_2_1                 1019.39             0               
     6 s_1_2        *              1             0             1 
     7 t_1_2                 7.27188             0               
     8 s_2_2        *              0             0             1 
     9 t_2_2                       0             0               
    10 s_1_3        *              1             0             1 
    11 t_1_3                  3.3538             0               
    12 s_2_3        *              0             0             1 
    13 t_2_3                       0             0               
    14 s_1_4        *              0             0             1 
    15 t_1_4                       0             0               
    16 s_2_4        *              1             0             1 
    17 t_2_4                       0             0               
    18 s_1_5        *              1             0             1 
    19 t_1_5                 21.9222             0               
    20 s_2_5        *              0             0             1 
    21 t_2_5                 1023.51             0               
    22 r_1_1_2      *              0             0             1 
    23 u_1_1_2      *              0             0             1 
    24 r_2_1_2      *              1             0             1 
    25 u_2_1_2      *              0             0             1 
    26 r_1_1_3      *              0             0             1 
    27 u_1_1_3      *              0             0             1 
    28 r_2_1_3      *              1             0             1 
    29 u_2_1_3      *              0             0             1 
    30 r_1_1_4      *              1             0             1 
    31 u_1_1_4      *              0             0             1 
    32 r_2_1_4      *              1             0             1 
    33 u_2_1_4      *              0             0             1 
    34 r_1_2_3      *              0             0             1 
    35 u_1_2_3      *              1             0             1 
    36 r_2_2_3      *              1             0             1 
    37 u_2_2_3      *              0             0             1 
    38 r_1_2_4      *              1             0             1 
    39 u_1_2_4      *              0             0             1 
    40 r_2_2_4      *              1             0             1 
    41 u_2_2_4      *              0             0             1 
    42 r_1_3_4      *              1             0             1 
    43 u_1_3_4      *              0             0             1 
    44 r_2_3_4      *              1             0             1 
    45 u_2_3_4      *              0             0             1 

Integer feasibility conditions:

KKT.PE: max.abs.err = 0.00e+00 on row 0
        max.rel.err = 0.00e+00 on row 0
        High quality

KKT.PB: max.abs.err = 3.42e-14 on row 72
        max.rel.err = 7.85e-15 on row 72
        High quality

End of output
